MARKOV
620
 2 2 2 2 2 2 2 2 2 2 2 2 2 2 2 2 2 2 2 2 2 2 2 2 2 2 2 2 2 2 2 2 2 2 2 2 2 2 2 2 2 2 2 2 2 2 2 2 2 2 2 2 2 2 2 2 2 2 2 2 2 2 2 2 2 2 2 2 2 2 2 2 2 2 2 2 2 2 2 2 2 2 2 2 2 2 2 2 2 2 2 2 2 2 2 2 2 2 2 2 2 2 2 2 2 2 2 2 2 2 2 2 2 2 2 2 2 2 2 2 2 2 2 2 2 2 2 2 2 2 2 2 2 2 2 2 2 2 2 2 2 2 2 2 2 2 2 2 2 2 2 2 2 2 2 2 2 2 2 2 2 2 2 2 2 2 2 2 2 2 2 2 2 2 2 2 2 2 2 2 2 2 2 2 2 2 2 2 2 2 2 2 2 2 2 2 2 2 2 2 2 2 2 2 2 2 2 2 2 2 2 2 2 2 2 2 2 2 2 2 2 2 2 2 2 2 2 2 2 2 2 2 2 2 2 2 2 2 2 2 2 2 2 2 2 2 2 2 2 2 2 2 2 2 2 2 2 2 2 2 2 2 2 2 2 2 2 2 2 2 2 2 2 2 2 2 2 2 2 2 2 2 2 2 2 2 2 2 2 2 2 2 2 2 2 2 2 2 2 2 2 2 2 2 2 2 2 2 2 2 2 2 2 2 2 2 2 2 2 2 2 2 2 2 2 2 2 2 2 2 2 2 2 2 2 2 2 2 2 2 2 2 2 2 2 2 2 2 2 2 2 2 2 2 2 2 2 2 2 2 2 2 2 2 2 2 2 2 2 2 2 2 2 2 2 2 2 2 2 2 2 2 2 2 2 2 2 2 2 2 2 2 2 2 2 2 2 2 2 2 2 2 2 2 2 2 2 2 2 2 2 2 2 2 2 2 2 2 2 2 2 2 2 2 2 2 2 2 2 2 2 2 2 2 2 2 2 2 2 2 2 2 2 2 2 2 2 2 2 2 2 2 2 2 2 2 2 2 2 2 2 2 2 2 2 2 2 2 2 2 2 2 2 2 2 2 2 2 2 2 2 2 2 2 2 2 2 2 2 2 2 2 2 2 2 2 2 2 2 2 2 2 2 2 2 2 2 2 2 2 2 2 2 2 2 2 2 2 2 2 2 2 2 2 2 2 2 2 2 2 2 2 2 2 2 2 2 2 2 2 2 2 2 2 2 2 2 2 2 2 2 2 2 2 2 2 2 2 2 2 2 2 2 2 2 2 2 2 2 2 2 2 2 2 2 2 2 2 2 2 2 2 2 2 2 2 2 2 2 2 2 2 2 2 2 2 2 2 2 2 2 2 2 2 2 2 2 2 2 2 2 2 2 2 2 2 2 2 2 2
632
3	182 193 619 
1	619 
3	70 151 618 
3	186 617 618 
1	617 
3	103 167 616 
3	79 615 616 
3	0 614 615 
3	174 613 614 
3	145 612 613 
3	215 611 612 
3	7 610 611 
3	102 609 610 
3	150 608 609 
3	34 607 608 
3	231 606 607 
3	229 605 606 
3	217 604 605 
3	220 603 604 
3	69 602 603 
3	166 601 602 
3	139 600 601 
3	58 599 600 
3	9 598 599 
3	196 597 598 
3	164 596 597 
3	212 595 596 
3	14 594 595 
3	188 593 594 
3	157 592 593 
3	218 591 592 
3	117 590 591 
3	59 589 590 
3	132 588 589 
3	224 587 588 
3	191 586 587 
3	88 585 586 
3	183 584 585 
3	72 583 584 
3	8 582 583 
3	123 581 582 
3	147 580 581 
3	116 579 580 
3	128 578 579 
3	202 577 578 
3	207 576 577 
3	76 575 576 
3	115 574 575 
3	173 573 574 
3	156 572 573 
3	125 571 572 
3	77 570 571 
3	163 569 570 
3	80 568 569 
3	18 567 568 
3	22 566 567 
3	74 565 566 
3	81 564 565 
3	214 563 564 
3	154 562 563 
3	131 561 562 
3	96 560 561 
3	143 559 560 
3	47 558 559 
3	225 557 558 
3	4 556 557 
3	197 555 556 
3	138 554 555 
3	152 553 554 
3	118 552 553 
3	129 551 552 
3	153 550 551 
3	228 549 550 
3	71 548 549 
3	112 547 548 
3	51 546 547 
3	175 545 546 
3	170 544 545 
3	11 543 544 
3	5 542 543 
3	40 541 542 
3	95 540 541 
3	194 539 540 
3	92 538 539 
3	136 537 538 
3	135 536 537 
3	142 535 536 
3	46 534 535 
3	120 533 534 
1	533 
3	0 189 532 
3	193 531 532 
3	158 530 531 
1	530 
3	79 103 529 
3	174 528 529 
3	0 527 528 
3	145 526 527 
3	125 525 526 
3	163 524 525 
3	150 523 524 
3	91 522 523 
3	81 521 522 
3	74 520 521 
3	229 519 520 
3	214 518 519 
3	155 517 518 
3	24 516 517 
3	108 515 516 
3	199 514 515 
3	61 513 514 
3	217 512 513 
3	154 511 512 
3	131 510 511 
3	220 509 510 
3	56 508 509 
3	69 507 508 
3	143 506 507 
3	47 505 506 
3	138 504 505 
3	196 503 504 
3	153 502 503 
3	212 501 502 
3	14 500 501 
3	188 499 500 
3	157 498 499 
3	211 497 498 
3	117 496 497 
3	112 495 496 
3	191 494 495 
3	72 493 494 
3	175 492 493 
3	170 491 492 
3	11 490 491 
3	5 489 490 
3	3 488 489 
3	40 487 488 
3	66 486 487 
3	198 485 486 
3	119 484 485 
3	128 483 484 
3	95 482 483 
3	202 481 482 
3	92 480 481 
3	135 479 480 
3	142 478 479 
3	178 477 478 
3	120 476 477 
1	476 
3	2 70 475 
3	24 474 475 
1	474 
3	0 79 473 
3	195 472 473 
3	230 471 472 
3	168 470 471 
3	77 469 470 
3	89 468 469 
3	30 467 468 
3	132 466 467 
3	80 465 466 
3	23 464 465 
3	206 463 464 
3	148 462 463 
3	35 461 462 
3	86 460 461 
3	146 459 460 
3	193 458 459 
3	182 457 458 
3	124 456 457 
3	78 455 456 
3	140 454 455 
3	225 453 454 
3	133 452 453 
3	179 451 452 
3	223 450 451 
3	76 449 450 
3	114 448 449 
1	448 
3	54 62 447 
3	3 446 447 
3	220 445 446 
3	15 444 445 
3	66 443 444 
3	71 442 443 
3	203 441 442 
3	101 440 441 
3	92 439 440 
3	74 438 439 
3	2 437 438 
3	45 436 437 
3	153 435 436 
3	227 434 435 
3	199 433 434 
1	433 
3	27 172 432 
3	85 431 432 
3	99 430 431 
3	158 429 430 
3	89 428 429 
3	151 427 428 
3	176 426 427 
3	132 425 426 
3	6 424 425 
3	84 423 424 
3	222 422 423 
3	87 421 422 
3	110 420 421 
3	185 419 420 
3	165 418 419 
3	65 417 418 
3	29 416 417 
3	111 415 416 
3	193 414 415 
3	97 413 414 
3	33 412 413 
3	127 411 412 
3	19 410 411 
3	130 409 410 
3	32 408 409 
3	184 407 408 
3	82 406 407 
3	152 405 406 
3	83 404 405 
3	126 403 404 
3	144 402 403 
1	402 
3	61 198 401 
3	163 400 401 
3	229 399 400 
1	399 
3	167 174 398 
3	52 397 398 
3	67 396 397 
3	204 395 396 
3	91 394 395 
3	34 393 394 
3	37 392 393 
3	229 391 392 
3	68 390 391 
3	217 389 390 
3	146 388 389 
3	121 387 388 
3	28 386 387 
3	107 385 386 
3	98 384 385 
3	21 383 384 
3	169 382 383 
3	196 381 382 
3	212 380 381 
3	188 379 380 
3	157 378 379 
3	117 377 378 
3	211 376 377 
3	200 375 376 
3	59 374 375 
3	208 373 374 
3	191 372 373 
3	70 371 372 
3	88 370 371 
3	73 369 370 
3	198 368 369 
3	66 367 368 
3	41 366 367 
3	13 365 366 
3	76 364 365 
3	115 363 364 
3	192 362 363 
3	77 361 362 
3	203 360 361 
3	159 359 360 
3	31 358 359 
3	55 357 358 
3	163 356 357 
3	80 355 356 
3	226 354 355 
3	64 353 354 
3	57 352 353 
3	81 351 352 
3	38 350 351 
3	214 349 350 
3	108 348 349 
3	122 347 348 
3	209 346 347 
3	61 345 346 
3	62 344 345 
3	131 343 344 
3	56 342 343 
3	10 341 342 
3	109 340 341 
3	48 339 340 
3	47 338 339 
3	219 337 338 
3	187 336 337 
3	179 335 336 
3	152 334 335 
3	17 333 334 
3	45 332 333 
3	2 331 332 
3	153 330 331 
3	43 329 330 
3	113 328 329 
3	54 327 328 
3	158 326 327 
3	16 325 326 
3	71 324 325 
3	94 323 324 
3	181 322 323 
3	210 321 322 
3	170 320 321 
3	65 319 320 
3	5 318 319 
3	137 317 318 
3	50 316 317 
3	44 315 316 
3	134 314 315 
3	95 313 314 
3	92 312 313 
3	216 311 312 
3	75 310 311 
3	178 309 310 
3	149 308 309 
3	103 307 308 
3	106 306 307 
3	79 305 306 
3	42 304 305 
3	0 303 304 
3	145 302 303 
3	215 301 302 
3	49 300 301 
3	30 299 300 
3	150 298 299 
3	213 297 298 
3	177 296 297 
3	221 295 296 
3	24 294 295 
3	199 293 294 
3	220 292 293 
3	69 291 292 
3	166 290 291 
3	100 289 290 
3	201 288 289 
3	162 287 288 
3	205 286 287 
3	14 285 286 
3	53 284 285 
3	93 283 284 
3	224 282 283 
3	141 281 282 
3	26 280 281 
3	104 279 280 
3	183 278 279 
3	72 277 278 
3	123 276 277 
3	161 275 276 
3	147 274 275 
3	119 273 274 
3	116 272 273 
3	128 271 272 
3	101 270 271 
3	60 269 270 
3	160 268 269 
3	202 267 268 
3	173 266 267 
3	90 265 266 
3	190 264 265 
3	105 263 264 
3	125 262 263 
3	230 261 262 
3	171 260 261 
3	1 259 260 
3	18 258 259 
3	25 257 258 
3	22 256 257 
3	74 255 256 
3	155 254 255 
3	154 253 254 
3	15 252 253 
3	143 251 252 
3	225 250 251 
3	180 249 250 
3	138 248 249 
3	118 247 248 
3	228 246 247 
3	112 245 246 
3	63 244 245 
3	39 243 244 
3	36 242 243 
3	175 241 242 
3	12 240 241 
3	11 239 240 
3	3 238 239 
3	40 237 238 
3	20 236 237 
3	135 235 236 
3	142 234 235 
3	46 233 234 
3	120 232 233 
1	232 
1	167 
1	174 
1	89 
1	7 
1	52 
1	176 
1	67 
1	185 
1	204 
1	34 
1	91 
1	37 
1	229 
1	165 
1	68 
1	217 
1	146 
1	121 
1	193 
1	127 
1	78 
1	28 
1	107 
1	98 
1	82 
1	21 
1	196 
1	169 
1	164 
1	212 
1	188 
1	157 
1	168 
1	117 
1	211 
1	151 
1	200 
1	59 
1	208 
1	191 
1	70 
1	88 
1	8 
1	111 
1	73 
1	198 
1	66 
1	182 
1	124 
1	130 
1	41 
1	13 
1	223 
1	207 
1	76 
1	115 
1	192 
1	156 
1	227 
1	172 
1	77 
1	203 
1	159 
1	31 
1	55 
1	80 
1	163 
1	222 
1	226 
1	64 
1	57 
1	81 
1	38 
1	214 
1	108 
1	122 
1	209 
1	61 
1	62 
1	131 
1	56 
1	140 
1	10 
1	109 
1	47 
1	48 
1	32 
1	219 
1	133 
1	187 
1	179 
1	197 
1	4 
1	152 
1	129 
1	17 
1	45 
1	2 
1	153 
1	43 
1	27 
1	113 
1	54 
1	158 
1	71 
1	16 
1	110 
1	94 
1	181 
1	210 
1	206 
1	170 
1	65 
1	5 
1	50 
1	137 
1	44 
1	134 
1	95 
1	216 
1	92 
1	75 
1	178 
1	149 
1	103 
1	106 
1	79 
1	42 
1	0 
1	145 
1	85 
1	215 
1	49 
1	102 
1	30 
1	84 
1	213 
1	150 
1	231 
1	177 
1	221 
1	24 
1	35 
1	199 
1	86 
1	220 
1	69 
1	166 
1	139 
1	58 
1	9 
1	100 
1	201 
1	162 
1	205 
1	14 
1	218 
1	53 
1	132 
1	93 
1	186 
1	224 
1	87 
1	141 
1	23 
1	104 
1	26 
1	183 
1	72 
1	123 
1	148 
1	161 
1	29 
1	147 
1	119 
1	116 
1	60 
1	101 
1	128 
1	160 
1	202 
1	173 
1	90 
1	144 
1	190 
1	105 
1	125 
1	230 
1	171 
1	1 
1	18 
1	25 
1	22 
1	74 
1	155 
1	154 
1	15 
1	97 
1	96 
1	33 
1	225 
1	143 
1	180 
1	184 
1	138 
1	118 
1	195 
1	228 
1	99 
1	112 
1	63 
1	51 
1	6 
1	39 
1	189 
1	36 
1	175 
1	12 
1	11 
1	3 
1	40 
1	19 
1	194 
1	20 
1	136 
1	135 
1	142 
1	83 
1	46 
1	126 
1	114 
1	120 
0	

8
 1 0 0.1 0.9 0.09 0.91 0.009 0.991
2
 0.03 1
8
 1 0 0.5 0.5 0.3 0.7 0.15 0.85
8
 1 0 0 1 0.5 0 0.5 1
2
 0.03 1
8
 1 0 0.9 0.1 0.05 0.95 0.045 0.955
8
 1 0 0 1 0.9 0 0.1 1
8
 1 0 0 1 0.05 0 0.95 1
8
 1 0 0 1 0.05 0 0.95 1
8
 1 0 0 1 0.05 0 0.95 1
8
 1 0 0 1 0.9 0 0.1 1
8
 1 0 0 1 0.3 0 0.7 1
8
 1 0 0 1 0.3 0 0.7 1
8
 1 0 0 1 0.1 0 0.9 1
8
 1 0 0 1 0.9 0 0.1 1
8
 1 0 0 1 0.3 0 0.7 1
8
 1 0 0 1 0.05 0 0.95 1
8
 1 0 0 1 0.05 0 0.95 1
8
 1 0 0 1 0.05 0 0.95 1
8
 1 0 0 1 0.05 0 0.95 1
8
 1 0 0 1 0.5 0 0.5 1
8
 1 0 0 1 0.3 0 0.7 1
8
 1 0 0 1 0.5 0 0.5 1
8
 1 0 0 1 0.9 0 0.1 1
8
 1 0 0 1 0.05 0 0.95 1
8
 1 0 0 1 0.3 0 0.7 1
8
 1 0 0 1 0.05 0 0.95 1
8
 1 0 0 1 0.05 0 0.95 1
8
 1 0 0 1 0.05 0 0.95 1
8
 1 0 0 1 0.05 0 0.95 1
8
 1 0 0 1 0.5 0 0.5 1
8
 1 0 0 1 0.4 0 0.6 1
8
 1 0 0 1 0.9 0 0.1 1
8
 1 0 0 1 0.5 0 0.5 1
8
 1 0 0 1 0.7 0 0.3 1
8
 1 0 0 1 0.01 0 0.99 1
8
 1 0 0 1 0.9 0 0.1 1
8
 1 0 0 1 0.9 0 0.1 1
8
 1 0 0 1 0.05 0 0.95 1
8
 1 0 0 1 0.4 0 0.6 1
8
 1 0 0 1 0.9 0 0.1 1
8
 1 0 0 1 0.9 0 0.1 1
8
 1 0 0 1 0.75 0 0.25 1
8
 1 0 0 1 0.05 0 0.95 1
8
 1 0 0 1 0.05 0 0.95 1
8
 1 0 0 1 0.3 0 0.7 1
8
 1 0 0 1 0.9 0 0.1 1
8
 1 0 0 1 0.5 0 0.5 1
8
 1 0 0 1 0.9 0 0.1 1
8
 1 0 0 1 0.3 0 0.7 1
8
 1 0 0 1 0.05 0 0.95 1
8
 1 0 0 1 0.9 0 0.1 1
8
 1 0 0 1 0.5 0 0.5 1
8
 1 0 0 1 0.9 0 0.1 1
8
 1 0 0 1 0.9 0 0.1 1
8
 1 0 0 1 0.9 0 0.1 1
8
 1 0 0 1 0.05 0 0.95 1
8
 1 0 0 1 0.05 0 0.95 1
8
 1 0 0 1 0.05 0 0.95 1
8
 1 0 0 1 0.05 0 0.95 1
8
 1 0 0 1 0.05 0 0.95 1
8
 1 0 0 1 0.3 0 0.7 1
8
 1 0 0 1 0.05 0 0.95 1
8
 1 0 0 1 0.05 0 0.95 1
8
 1 0 0 1 0.9 0 0.1 1
8
 1 0 0 1 0.3 0 0.7 1
8
 1 0 0 1 0.5 0 0.5 1
8
 1 0 0 1 0.05 0 0.95 1
8
 1 0 0 1 0.1 0 0.9 1
8
 1 0 0 1 0.9 0 0.1 1
8
 1 0 0 1 0.89 0 0.11 1
8
 1 0 0 1 0.05 0 0.95 1
8
 1 0 0 1 0.9 0 0.1 1
8
 1 0 0 1 0.89 0 0.11 1
8
 1 0 0 1 0.05 0 0.95 1
8
 1 0 0 1 0.09 0 0.91 1
8
 1 0 0 1 0.05 0 0.95 1
8
 1 0 0 1 0.02 0 0.98 1
8
 1 0 0 1 0.05 0 0.95 1
8
 1 0 0 1 0.2 0 0.8 1
8
 1 0 0 1 0.05 0 0.95 1
8
 1 0 0 1 0.05 0 0.95 1
8
 1 0 0 1 0.3 0 0.7 1
8
 1 0 0 1 0.05 0 0.95 1
8
 1 0 0 1 0.4 0 0.6 1
8
 1 0 0 1 0.05 0 0.95 1
8
 1 0 0 1 0.05 0 0.95 1
8
 1 0 0 1 0.9 0 0.1 1
8
 1 0 0 1 0.05 0 0.95 1
2
 0.03 1
8
 1 0 0.01 0.99 0.4 0.6 0.004 0.996
8
 1 0 0 1 0.02 0 0.98 1
8
 1 0 0 1 0.89 0 0.11 1
2
 0.03 1
8
 1 0 0 1 0 1 0 1
8
 1 0 0 1 0 0 1 1
8
 1 0 0 1 0 0 1 1
8
 1 0 0 1 0 0 1 1
8
 1 0 0 1 0 0 1 1
8
 1 0 0 1 0 0 1 1
8
 1 0 0 1 0 0 1 1
8
 1 0 0 1 0 0 1 1
8
 1 0 0 1 0 0 1 1
8
 1 0 0 1 0 0 1 1
8
 1 0 0 1 0 0 1 1
8
 1 0 0 1 0 0 1 1
8
 1 0 0 1 0 0 1 1
8
 1 0 0 1 0 0 1 1
8
 1 0 0 1 0 0 1 1
8
 1 0 0 1 0 0 1 1
8
 1 0 0 1 0 0 1 1
8
 1 0 0 1 0 0 1 1
8
 1 0 0 1 0 0 1 1
8
 1 0 0 1 0 0 1 1
8
 1 0 0 1 0 0 1 1
8
 1 0 0 1 0 0 1 1
8
 1 0 0 1 0 0 1 1
8
 1 0 0 1 0 0 1 1
8
 1 0 0 1 0 0 1 1
8
 1 0 0 1 0 0 1 1
8
 1 0 0 1 0 0 1 1
8
 1 0 0 1 0 0 1 1
8
 1 0 0 1 0 0 1 1
8
 1 0 0 1 0 0 1 1
8
 1 0 0 1 0 0 1 1
8
 1 0 0 1 0 0 1 1
8
 1 0 0 1 0 0 1 1
8
 1 0 0 1 0 0 1 1
8
 1 0 0 1 0 0 1 1
8
 1 0 0 1 0 0 1 1
8
 1 0 0 1 0 0 1 1
8
 1 0 0 1 0 0 1 1
8
 1 0 0 1 0 0 1 1
8
 1 0 0 1 0 0 1 1
8
 1 0 0 1 0 0 1 1
8
 1 0 0 1 0 0 1 1
8
 1 0 0 1 0 0 1 1
8
 1 0 0 1 0 0 1 1
8
 1 0 0 1 0 0 1 1
8
 1 0 0 1 0 0 1 1
8
 1 0 0 1 0 0 1 1
8
 1 0 0 1 0 0 1 1
8
 1 0 0 1 0 0 1 1
8
 1 0 0 1 0 0 1 1
8
 1 0 0 1 0 0 1 1
8
 1 0 0 1 0 0 1 1
8
 1 0 0 1 0 0 1 1
8
 1 0 0 1 0 0 1 1
2
 0.03 1
8
 1 0 0.3 0.7 0.5 0.5 0.15 0.85
8
 1 0 0 1 0.01 0 0.99 1
2
 0.03 1
8
 1 0 0.4 0.6 0.6 0.4 0.24 0.76
8
 1 0 0 1 0.02 0 0.98 1
8
 1 0 0 1 0.6 0 0.4 1
8
 1 0 0 1 0 0 1 1
8
 1 0 0 1 0.4 0 0.6 1
8
 1 0 0 1 0.5 0 0.5 1
8
 1 0 0 1 0.5 0 0.5 1
8
 1 0 0 1 0.89 0 0.11 1
8
 1 0 0 1 0.4 0 0.6 1
8
 1 0 0 1 0.4 0 0.6 1
8
 1 0 0 1 0.02 0 0.98 1
8
 1 0 0 1 0.4 0 0.6 1
8
 1 0 0 1 0.4 0 0.6 1
8
 1 0 0 1 0.4 0 0.6 1
8
 1 0 0 1 0.89 0 0.11 1
8
 1 0 0 1 0.1 0 0.9 1
8
 1 0 0 1 0.05 0 0.95 1
8
 1 0 0 1 0.02 0 0.98 1
8
 1 0 0 1 0.4 0 0.6 1
8
 1 0 0 1 0.01 0 0.99 1
8
 1 0 0 1 0.4 0 0.6 1
8
 1 0 0 1 0 0 1 1
8
 1 0 0 1 0.4 0 0.6 1
8
 1 0 0 1 0.05 0 0.95 1
8
 1 0 0 1 0.4 0 0.6 1
8
 1 0 0 1 0.1 0 0.9 1
2
 0.03 1
8
 1 0 0.57 0.43 0.5 0.5 0.285 0.715
8
 1 0 0 1 0.1 0 0.9 1
8
 1 0 0 1 0.09 0 0.91 1
8
 1 0 0 1 0.5 0 0.5 1
8
 1 0 0 1 0.1 0 0.9 1
8
 1 0 0 1 0.5 0 0.5 1
8
 1 0 0 1 0.5 0 0.5 1
8
 1 0 0 1 0.5 0 0.5 1
8
 1 0 0 1 0.01 0 0.99 1
8
 1 0 0 1 0.5 0 0.5 1
8
 1 0 0 1 0.5 0 0.5 1
8
 1 0 0 1 0.4 0 0.6 1
8
 1 0 0 1 0.1 0 0.9 1
8
 1 0 0 1 0.01 0 0.99 1
8
 1 0 0 1 0.2 0 0.8 1
2
 0.03 1
8
 1 0 0.2 0.8 0.5 0.5 0.1 0.9
8
 1 0 0 1 0.5 0 0.5 1
8
 1 0 0 1 0.5 0 0.5 1
8
 1 0 0 1 0.89 0 0.11 1
8
 1 0 0 1 0.5 0 0.5 1
8
 1 0 0 1 0.5 0 0.5 1
8
 1 0 0 1 0.1 0 0.9 1
8
 1 0 0 1 0.5 0 0.5 1
8
 1 0 0 1 0.89 0 0.11 1
8
 1 0 0 1 0.9 0 0.1 1
8
 1 0 0 1 0.5 0 0.5 1
8
 1 0 0 1 0 0 1 1
8
 1 0 0 1 0.5 0 0.5 1
8
 1 0 0 1 0.5 0 0.5 1
8
 1 0 0 1 0.5 0 0.5 1
8
 1 0 0 1 0.9 0 0.1 1
8
 1 0 0 1 0.89 0 0.11 1
8
 1 0 0 1 0.89 0 0.11 1
8
 1 0 0 1 0.5 0 0.5 1
8
 1 0 0 1 0.5 0 0.5 1
8
 1 0 0 1 0.01 0 0.99 1
8
 1 0 0 1 0.5 0 0.5 1
8
 1 0 0 1 0.3 0 0.7 1
8
 1 0 0 1 0.5 0 0.5 1
8
 1 0 0 1 0.1 0 0.9 1
8
 1 0 0 1 0.5 0 0.5 1
8
 1 0 0 1 0.09 0 0.91 1
8
 1 0 0 1 0.5 0 0.5 1
8
 1 0 0 1 0.89 0 0.11 1
8
 1 0 0 1 0.5 0 0.5 1
8
 1 0 0 1 0 0 1 1
2
 0.03 1
8
 1 0 0 1 0 1 0 1
8
 1 0 0 1 0 0 1 1
8
 1 0 0 1 0 0 1 1
2
 0.03 1
8
 1 0 0 1 0.9 0.1 0 1
8
 1 0 0 1 0.2 0 0.8 1
8
 1 0 0 1 0.4 0 0.6 1
8
 1 0 0 1 0.5 0 0.5 1
8
 1 0 0 1 0 0 1 1
8
 1 0 0 1 0.9 0 0.1 1
8
 1 0 0 1 0.5 0 0.5 1
8
 1 0 0 1 0.89 0 0.11 1
8
 1 0 0 1 0.5 0 0.5 1
8
 1 0 0 1 0 0 1 1
8
 1 0 0 1 0.89 0 0.11 1
8
 1 0 0 1 0.5 0 0.5 1
8
 1 0 0 1 0.4 0 0.6 1
8
 1 0 0 1 0.1 0 0.9 1
8
 1 0 0 1 0.5 0 0.5 1
8
 1 0 0 1 0.5 0 0.5 1
8
 1 0 0 1 0.1 0 0.9 1
8
 1 0 0 1 0 0 1 1
8
 1 0 0 1 0.5 0 0.5 1
8
 1 0 0 1 0.01 0 0.99 1
8
 1 0 0 1 0 0 1 1
8
 1 0 0 1 0 0 1 1
8
 1 0 0 1 0 0 1 1
8
 1 0 0 1 0.5 0 0.5 1
8
 1 0 0 1 0.9 0 0.1 1
8
 1 0 0 1 0.5 0 0.5 1
8
 1 0 0 1 0 0 1 1
8
 1 0 0 1 0.5 0 0.5 1
8
 1 0 0 1 0.9 0 0.1 1
8
 1 0 0 1 0.5 0 0.5 1
8
 1 0 0 1 0.1 0 0.9 1
8
 1 0 0 1 0 0 1 1
8
 1 0 0 1 0.1 0 0.9 1
8
 1 0 0 1 0.5 0 0.5 1
8
 1 0 0 1 0.9 0 0.1 1
8
 1 0 0 1 0.5 0 0.5 1
8
 1 0 0 1 0.5 0 0.5 1
8
 1 0 0 1 0.9 0 0.1 1
8
 1 0 0 1 0.09 0 0.91 1
8
 1 0 0 1 0.5 0 0.5 1
8
 1 0 0 1 0.1 0 0.9 1
8
 1 0 0 1 0.5 0 0.5 1
8
 1 0 0 1 0.5 0 0.5 1
8
 1 0 0 1 0.9 0 0.1 1
8
 1 0 0 1 0.09 0 0.91 1
8
 1 0 0 1 0.5 0 0.5 1
8
 1 0 0 1 0.5 0 0.5 1
8
 1 0 0 1 0 0 1 1
8
 1 0 0 1 0.5 0 0.5 1
8
 1 0 0 1 0 0 1 1
8
 1 0 0 1 0 0 1 1
8
 1 0 0 1 0.5 0 0.5 1
8
 1 0 0 1 0.1 0 0.9 1
8
 1 0 0 1 0.5 0 0.5 1
8
 1 0 0 1 0.57 0 0.43 1
8
 1 0 0 1 0 0 1 1
8
 1 0 0 1 0 0 1 1
8
 1 0 0 1 0.5 0 0.5 1
8
 1 0 0 1 0.5 0 0.5 1
8
 1 0 0 1 0.9 0 0.1 1
8
 1 0 0 1 0 0 1 1
8
 1 0 0 1 0.5 0 0.5 1
8
 1 0 0 1 0.1 0 0.9 1
8
 1 0 0 1 0.5 0 0.5 1
8
 1 0 0 1 0.1 0 0.9 1
8
 1 0 0 1 0.5 0 0.5 1
8
 1 0 0 1 0.4 0 0.6 1
8
 1 0 0 1 0.5 0 0.5 1
8
 1 0 0 1 0 0 1 1
8
 1 0 0 1 0.5 0 0.5 1
8
 1 0 0 1 0.9 0 0.1 1
8
 1 0 0 1 0.5 0 0.5 1
8
 1 0 0 1 0.89 0 0.11 1
8
 1 0 0 1 0.5 0 0.5 1
8
 1 0 0 1 0.5 0 0.5 1
8
 1 0 0 1 0.5 0 0.5 1
8
 1 0 0 1 0.4 0 0.6 1
8
 1 0 0 1 0.5 0 0.5 1
8
 1 0 0 1 0 0 1 1
8
 1 0 0 1 0.1 0 0.9 1
8
 1 0 0 1 0.6 0 0.4 1
8
 1 0 0 1 0.5 0 0.5 1
8
 1 0 0 1 0.1 0 0.9 1
8
 1 0 0 1 0.4 0 0.6 1
8
 1 0 0 1 0.5 0 0.5 1
8
 1 0 0 1 0 0 1 1
8
 1 0 0 1 0 0 1 1
8
 1 0 0 1 0.1 0 0.9 1
8
 1 0 0 1 0.59 0 0.41 1
8
 1 0 0 1 0 0 1 1
8
 1 0 0 1 0.4 0 0.6 1
8
 1 0 0 1 0 0 1 1
8
 1 0 0 1 0.5 0 0.5 1
8
 1 0 0 1 0.9 0 0.1 1
8
 1 0 0 1 0.5 0 0.5 1
8
 1 0 0 1 0 0 1 1
8
 1 0 0 1 0 0 1 1
8
 1 0 0 1 0.9 0 0.1 1
8
 1 0 0 1 0.4 0 0.6 1
8
 1 0 0 1 0.5 0 0.5 1
8
 1 0 0 1 0.1 0 0.9 1
8
 1 0 0 1 0.4 0 0.6 1
8
 1 0 0 1 0.5 0 0.5 1
8
 1 0 0 1 0.09 0 0.91 1
8
 1 0 0 1 0 0 1 1
8
 1 0 0 1 0 0 1 1
8
 1 0 0 1 0 0 1 1
8
 1 0 0 1 0 0 1 1
8
 1 0 0 1 0.5 0 0.5 1
8
 1 0 0 1 0.5 0 0.5 1
8
 1 0 0 1 0.5 0 0.5 1
8
 1 0 0 1 0.5 0 0.5 1
8
 1 0 0 1 0.5 0 0.5 1
8
 1 0 0 1 0 0 1 1
8
 1 0 0 1 0.5 0 0.5 1
8
 1 0 0 1 0.4 0 0.6 1
8
 1 0 0 1 0.7 0 0.3 1
8
 1 0 0 1 0.5 0 0.5 1
8
 1 0 0 1 0.89 0 0.11 1
8
 1 0 0 1 0.5 0 0.5 1
8
 1 0 0 1 0.9 0 0.1 1
8
 1 0 0 1 0 0 1 1
8
 1 0 0 1 0.9 0 0.1 1
8
 1 0 0 1 0.5 0 0.5 1
8
 1 0 0 1 0.5 0 0.5 1
8
 1 0 0 1 0 0 1 1
8
 1 0 0 1 0.75 0 0.25 1
8
 1 0 0 1 0 0 1 1
8
 1 0 0 1 0.09 0 0.91 1
8
 1 0 0 1 0.5 0 0.5 1
8
 1 0 0 1 0.5 0 0.5 1
8
 1 0 0 1 0 0 1 1
8
 1 0 0 1 0.9 0 0.1 1
8
 1 0 0 1 0.7 0 0.3 1
8
 1 0 0 1 0.4 0 0.6 1
8
 1 0 0 1 0.1 0 0.9 1
8
 1 0 0 1 0 0 1 1
8
 1 0 0 1 0.6 0 0.4 1
8
 1 0 0 1 0.5 0 0.5 1
8
 1 0 0 1 0.4 0 0.6 1
8
 1 0 0 1 0.9 0 0.1 1
8
 1 0 0 1 0.5 0 0.5 1
8
 1 0 0 1 0.9 0 0.1 1
8
 1 0 0 1 0 0 1 1
8
 1 0 0 1 0 0 1 1
8
 1 0 0 1 0 0 1 1
8
 1 0 0 1 0.09 0 0.91 1
8
 1 0 0 1 0 0 1 1
8
 1 0 0 1 0.9 0 0.1 1
8
 1 0 0 1 0.5 0 0.5 1
8
 1 0 0 1 0 0 1 1
8
 1 0 0 1 0.9 0 0.1 1
8
 1 0 0 1 0.9 0 0.1 1
8
 1 0 0 1 0 0 1 1
8
 1 0 0 1 0.05 0 0.95 1
8
 1 0 0 1 0.5 0 0.5 1
8
 1 0 0 1 0.5 0 0.5 1
8
 1 0 0 1 0 0 1 1
8
 1 0 0 1 0.5 0 0.5 1
8
 1 0 0 1 0 0 1 1
8
 1 0 0 1 0.1 0 0.9 1
8
 1 0 0 1 0 0 1 1
8
 1 0 0 1 0.5 0 0.5 1
8
 1 0 0 1 0 0 1 1
8
 1 0 0 1 0 0 1 1
8
 1 0 0 1 0.9 0 0.1 1
8
 1 0 0 1 0.01 0 0.99 1
2
 0.03 1
2
 0.9995 0.0005
2
 0.99995 5e-05
2
 0.9999 0.0001
2
 0.9992 0.0008
2
 0.99999 1e-05
2
 0.9999 0.0001
2
 0.9999 0.0001
2
 0.9999 0.0001
2
 0.99999 1e-05
2
 0.99975 0.00025
2
 0.999 0.001
2
 0.99999 1e-05
2
 0.99995 5e-05
2
 0.9981 0.0019
2
 0.99999 1e-05
2
 0.9999 0.0001
2
 0.9999 0.0001
2
 0.99975 0.00025
2
 0.9995 0.0005
2
 0.999999 1e-06
2
 0.9999 0.0001
2
 0.9999 0.0001
2
 0.999999 1e-06
2
 0.99989 0.00011
2
 0.9996 0.0004
2
 0.9999 0.0001
2
 0.9999 0.0001
2
 0.9999 0.0001
2
 0.9999 0.0001
2
 0.99998 2e-05
2
 0.99999 1e-05
2
 0.9999 0.0001
2
 0.99995 5e-05
2
 0.99995 5e-05
2
 0.998 0.002
2
 0.99992 8e-05
2
 0.99974 0.00026
2
 0.999998 2e-06
2
 0.99989 0.00011
2
 0.99995 5e-05
2
 0.9999 0.0001
2
 0.99996 4e-05
2
 0.99946 0.00054
2
 0.99996 4e-05
2
 0.99981 0.00019
2
 0.9999 0.0001
2
 0.99998 2e-05
2
 0.9998 0.0002
2
 0.999998 2e-06
2
 0.9995 0.0005
2
 0.9999 0.0001
2
 0.9999 0.0001
2
 0.9999 0.0001
2
 0.9991 0.0009
2
 0.99992 8e-05
2
 0.9999 0.0001
2
 0.99999 1e-05
2
 0.9999 0.0001
2
 0.99998 2e-05
2
 0.9999 0.0001
2
 0.9996 0.0004
2
 0.99996 4e-05
2
 0.99995 5e-05
2
 0.9999 0.0001
2
 0.9995 0.0005
2
 0.999973 2.7e-05
2
 0.99999 1e-05
2
 0.99991 9e-05
2
 0.99995 5e-05
2
 0.99999 1e-05
2
 0.9999 0.0001
2
 0.9999 0.0001
2
 0.9991 0.0009
2
 0.9999 0.0001
2
 0.9995 0.0005
2
 0.99995 5e-05
2
 0.9999 0.0001
2
 0.99985 0.00015
2
 0.9999 0.0001
2
 0.9996 0.0004
2
 0.99998 2e-05
2
 0.9998 0.0002
2
 0.99999 1e-05
2
 0.9999 0.0001
2
 0.9999 0.0001
2
 0.9998 0.0002
2
 0.9999 0.0001
2
 0.9995 0.0005
2
 0.999999 1e-06
2
 0.99999 1e-05
2
 0.9995 0.0005
2
 0.99922 0.00078
2
 0.9997 0.0003
2
 0.9998 0.0002
2
 0.99993 7e-05
2
 0.9991 0.0009
2
 0.9998 0.0002
2
 0.99995 5e-05
2
 0.9998 0.0002
2
 0.9998 0.0002
2
 1 5e-07
2
 0.9994 0.0006
2
 0.99999 1e-05
2
 0.9999 0.0001
2
 0.9999 0.0001
2
 0.9995 0.0005
2
 0.99998 2e-05
2
 0.9997 0.0003
2
 0.9999 0.0001
2
 0.99984 0.00016
2
 0.999999 1e-06
2
 0.99993 7e-05
2
 0.9996 0.0004
2
 0.99997 3e-05
2
 0.9999 0.0001
2
 0.999 0.001
2
 0.998 0.002
2
 0.9999 0.0001
2
 0.9999 0.0001
2
 0.99995 5e-05
2
 0.99998 2e-05
2
 0.9995 0.0005
2
 0.9999 0.0001
2
 0.9982 0.0018
2
 0.9999 0.0001
2
 0.99996 4e-05
2
 0.99985 0.00015
2
 0.9999 0.0001
2
 0.9999 0.0001
2
 0.9999 0.0001
2
 0.9999 0.0001
2
 0.999977 2.291e-05
2
 0.998 0.002
2
 0.9991 0.0009
2
 0.99989 0.00011
2
 0.9985 0.0015
2
 0.9999 0.0001
2
 0.99995 5e-05
2
 1 2e-07
2
 0.9996 0.0004
2
 0.99995 5e-05
2
 0.9985 0.0015
2
 0.9999 0.0001
2
 0.99987 0.00013
2
 0.999999 6.2e-07
2
 0.99995 5e-05
2
 0.99998 2e-05
2
 1 1.2e-07
2
 0.999 0.001
2
 0.9996 0.0004
2
 0.994 0.006
2
 0.99995 5e-05
2
 0.9999 0.0001
2
 0.99998 2e-05
2
 0.99999 1e-05
2
 0.9999 0.0001
2
 0.9995 0.0005
2
 0.9999 0.0001
2
 0.9999 0.0001
2
 0.999996 4e-06
2
 0.9999 0.0001
2
 1 1.6e-07
2
 0.99999 1e-05
2
 0.9999 0.0001
2
 0.9994 0.0006
2
 0.9999 0.0001
2
 0.9999 0.0001
2
 0.999907 9.332e-05
2
 0.9999 0.0001
2
 0.9994 0.0006
2
 0.99989 0.00011
2
 0.9999 0.0001
2
 0.9999 0.0001
2
 0.999969 3.12e-05
2
 0.99995 5e-05
2
 0.999992 8e-06
2
 0.9999 0.0001
2
 0.99975 0.00025
2
 0.9999 0.0001
2
 0.99999 1e-05
2
 0.9999 0.0001
2
 0.99999 1e-05
2
 0.9998 0.0002
2
 0.9999 0.0001
2
 0.9999 0.0001
2
 0.9999 0.0001
2
 0.9999 0.0001
2
 0.999 0.001
2
 0.9995 0.0005
2
 0.99991 9e-05
2
 0.99991 9e-05
2
 0.9999 0.0001
2
 0.9999 0.0001
2
 0.99995 5e-05
2
 0.99997 3e-05
2
 0.99995 5e-05
2
 0.99994 6e-05
2
 0.9995 0.0005
2
 0.998 0.002
2
 0.9998 0.0002
2
 0.9998 0.0002
2
 0.9999 0.0001
2
 0.9999 0.0001
2
 0.99999 1e-05
2
 0.99997 3e-05
2
 0.9999 0.0001
2
 0.99998 2e-05
2
 0.9995 0.0005
2
 0.99998 2e-05
2
 0.9999 0.0001
2
 0.9999 0.0001
2
 0.99995 5e-05
2
 0.9999 0.0001
2
 0.9999 0.0001
2
 0.9999 0.0001
2
 0.99997 3e-05
2
 0.9999 0.0001
2
 0.99999 1e-05
2
 0.9999 0.0001
2
 0.99996 4e-05
2
 0.9999 0.0001
2
 0.9999 0.0001
2
 0.9995 0.0005
2
 0.9998 0.0002
2
 0.9994 0.0006
2
 0.99997 3e-05
2
 0.99998 2e-05
2
 0.9999 0.0001
2
 0.9999 0.0001
2
 0.99988 0.00012
2
 0.9996 0.0004
2
 0.99993 7e-05
1
 1

